33D32945 STP File, STP Format Version 1.0

SECTION Comment
Name    "Series C" 
Creator "A. M. Costa" 
Format  "Z.H. Fu and J. K. Hao"
Remark  "Sparse graph with random weights"
#TotalEdgeCost 13637
#BudgetFraction 100
END 

SECTION Graph 
Nodes 500 
Edges 2500 
Root 1
Budget 136
HopLimit 25
E 1 96 6 
E 1 185 6 
E 1 194 7 
E 1 234 10 
E 1 248 10 
E 1 393 9 
E 1 418 8 
E 1 468 10 
E 2 75 1 
E 2 149 6 
E 2 233 8 
E 2 383 4 
E 2 449 9 
E 2 461 7 
E 3 13 10 
E 3 44 10 
E 3 53 8 
E 3 71 7 
E 3 75 9 
E 3 83 1 
E 3 123 2 
E 3 166 10 
E 3 228 10 
E 3 247 1 
E 3 283 2 
E 3 284 5 
E 3 330 9 
E 3 400 4 
E 3 490 10 
E 3 492 9 
E 4 9 5 
E 4 52 7 
E 4 189 5 
E 4 211 9 
E 4 252 1 
E 4 287 9 
E 4 318 2 
E 4 388 7 
E 4 454 9 
E 5 8 6 
E 5 54 4 
E 5 60 5 
E 5 71 7 
E 5 198 5 
E 5 231 7 
E 5 282 4 
E 5 347 8 
E 5 369 10 
E 5 407 1 
E 6 21 4 
E 6 22 6 
E 6 44 7 
E 6 97 1 
E 6 108 9 
E 6 200 5 
E 6 412 4 
E 7 43 3 
E 7 107 6 
E 7 161 6 
E 7 318 3 
E 7 342 4 
E 8 43 3 
E 8 88 6 
E 8 172 5 
E 8 235 1 
E 8 312 8 
E 8 367 10 
E 8 379 8 
E 8 435 6 
E 8 475 8 
E 9 69 4 
E 9 130 2 
E 9 171 10 
E 9 217 5 
E 9 266 7 
E 9 312 4 
E 9 374 9 
E 10 39 2 
E 10 64 2 
E 10 139 9 
E 10 151 10 
E 10 208 7 
E 10 211 9 
E 10 225 7 
E 10 267 1 
E 10 273 3 
E 10 293 1 
E 10 297 10 
E 10 338 9 
E 10 365 1 
E 10 443 7 
E 10 444 1 
E 10 480 1 
E 11 83 8 
E 11 117 8 
E 11 210 4 
E 11 248 5 
E 11 255 3 
E 11 258 4 
E 11 283 10 
E 11 368 10 
E 11 414 6 
E 11 440 9 
E 12 54 5 
E 12 104 3 
E 12 222 3 
E 12 241 1 
E 12 350 2 
E 12 477 9 
E 13 67 5 
E 13 103 1 
E 13 141 6 
E 13 149 4 
E 13 169 6 
E 13 290 4 
E 13 386 4 
E 13 398 7 
E 14 15 1 
E 14 33 4 
E 14 46 9 
E 14 319 7 
E 14 394 7 
E 14 416 10 
E 14 434 7 
E 14 452 1 
E 15 115 8 
E 15 137 3 
E 15 193 2 
E 15 466 1 
E 16 33 8 
E 16 117 8 
E 16 181 8 
E 16 199 10 
E 16 212 4 
E 16 242 6 
E 16 268 6 
E 16 304 1 
E 16 347 5 
E 16 377 7 
E 16 424 6 
E 16 441 3 
E 16 462 3 
E 16 469 5 
E 17 36 5 
E 17 39 1 
E 17 72 10 
E 17 150 7 
E 17 172 4 
E 17 189 10 
E 17 191 2 
E 17 196 10 
E 17 328 7 
E 17 347 10 
E 17 404 4 
E 17 410 1 
E 17 429 2 
E 17 444 3 
E 18 37 5 
E 18 94 8 
E 18 111 10 
E 18 123 10 
E 18 181 4 
E 18 222 6 
E 18 246 1 
E 18 259 10 
E 18 297 10 
E 18 427 8 
E 18 458 3 
E 18 475 8 
E 19 38 8 
E 19 62 5 
E 19 191 2 
E 19 196 9 
E 19 198 7 
E 19 200 4 
E 19 210 2 
E 19 238 4 
E 19 305 7 
E 19 309 8 
E 19 352 7 
E 19 370 5 
E 19 436 7 
E 19 462 1 
E 20 36 9 
E 20 90 9 
E 20 92 10 
E 20 176 8 
E 20 225 7 
E 20 292 9 
E 20 321 1 
E 20 378 2 
E 20 393 8 
E 20 425 5 
E 20 485 8 
E 21 28 10 
E 21 49 2 
E 21 206 9 
E 21 250 4 
E 21 359 4 
E 21 370 5 
E 21 373 10 
E 21 395 8 
E 21 431 6 
E 21 438 4 
E 21 474 8 
E 22 72 5 
E 22 159 9 
E 22 313 3 
E 22 318 1 
E 22 323 10 
E 22 329 2 
E 22 344 3 
E 22 362 2 
E 22 446 2 
E 22 457 2 
E 22 458 9 
E 22 479 9 
E 22 482 4 
E 23 30 6 
E 23 49 1 
E 23 260 2 
E 23 329 3 
E 23 347 4 
E 23 374 1 
E 23 412 6 
E 23 482 10 
E 23 498 3 
E 24 85 9 
E 24 113 4 
E 24 127 6 
E 24 211 4 
E 24 250 7 
E 24 378 8 
E 25 47 10 
E 25 96 8 
E 25 160 4 
E 25 164 3 
E 25 182 8 
E 25 215 5 
E 25 226 8 
E 25 275 2 
E 25 284 6 
E 25 291 1 
E 25 370 2 
E 25 435 4 
E 25 448 4 
E 25 487 8 
E 26 28 9 
E 26 105 10 
E 26 135 10 
E 26 175 10 
E 26 177 10 
E 26 235 4 
E 26 298 8 
E 26 347 1 
E 26 348 10 
E 27 41 7 
E 27 70 10 
E 27 104 10 
E 27 114 1 
E 27 148 5 
E 27 252 9 
E 27 273 5 
E 27 305 8 
E 27 350 8 
E 27 376 10 
E 27 406 8 
E 28 32 4 
E 28 59 6 
E 28 236 10 
E 28 284 7 
E 28 296 6 
E 28 377 8 
E 28 379 6 
E 28 466 5 
E 29 70 4 
E 29 127 5 
E 29 257 4 
E 29 274 1 
E 29 391 9 
E 29 413 4 
E 29 461 8 
E 30 122 1 
E 30 199 3 
E 30 202 8 
E 30 271 9 
E 30 471 1 
E 30 482 10 
E 31 57 3 
E 31 69 3 
E 31 85 4 
E 31 120 10 
E 31 185 10 
E 31 285 6 
E 31 293 4 
E 31 389 6 
E 32 82 1 
E 32 125 1 
E 32 185 8 
E 32 258 4 
E 32 311 3 
E 32 314 8 
E 32 321 9 
E 32 340 9 
E 32 420 8 
E 32 445 4 
E 32 485 2 
E 33 95 10 
E 33 105 3 
E 33 133 5 
E 33 136 1 
E 33 144 3 
E 33 195 1 
E 33 197 3 
E 33 210 8 
E 33 224 10 
E 33 228 4 
E 33 338 4 
E 33 339 2 
E 33 382 8 
E 33 415 2 
E 34 80 2 
E 34 90 3 
E 34 114 3 
E 34 119 8 
E 34 123 5 
E 34 135 2 
E 34 211 3 
E 34 298 9 
E 34 303 9 
E 34 374 6 
E 34 488 1 
E 35 74 2 
E 35 87 3 
E 35 104 2 
E 35 155 7 
E 35 186 4 
E 35 216 4 
E 35 227 10 
E 35 290 9 
E 35 485 4 
E 36 259 9 
E 36 267 2 
E 36 305 8 
E 36 466 2 
E 36 489 2 
E 37 48 10 
E 37 195 8 
E 37 223 1 
E 37 276 4 
E 37 338 7 
E 37 410 7 
E 37 496 3 
E 38 123 4 
E 38 291 1 
E 38 319 1 
E 38 462 2 
E 39 61 7 
E 39 102 3 
E 39 144 6 
E 39 148 3 
E 39 186 3 
E 39 315 2 
E 39 359 6 
E 39 425 6 
E 39 427 9 
E 39 454 7 
E 40 43 3 
E 40 87 4 
E 40 154 4 
E 40 197 3 
E 40 212 7 
E 40 287 10 
E 40 313 5 
E 40 314 5 
E 40 333 7 
E 40 367 5 
E 40 464 7 
E 40 493 7 
E 41 50 1 
E 41 63 2 
E 41 80 8 
E 41 98 7 
E 41 119 2 
E 41 137 1 
E 41 147 5 
E 41 152 6 
E 41 163 5 
E 41 186 8 
E 41 188 4 
E 41 216 5 
E 41 245 7 
E 41 326 1 
E 41 350 8 
E 41 453 5 
E 42 121 8 
E 42 147 3 
E 42 157 6 
E 42 166 9 
E 42 183 8 
E 42 201 8 
E 42 231 5 
E 42 246 7 
E 42 301 10 
E 42 317 6 
E 42 320 10 
E 42 483 10 
E 43 104 2 
E 43 135 5 
E 43 163 8 
E 43 168 1 
E 43 181 5 
E 43 249 4 
E 43 267 3 
E 43 448 7 
E 43 463 6 
E 43 474 2 
E 43 481 1 
E 43 482 2 
E 43 486 1 
E 44 145 8 
E 44 159 6 
E 44 167 4 
E 44 264 4 
E 44 345 4 
E 44 347 8 
E 44 379 7 
E 44 485 3 
E 44 494 7 
E 45 70 8 
E 45 84 2 
E 45 113 1 
E 45 146 5 
E 45 161 6 
E 45 162 6 
E 45 287 10 
E 45 361 7 
E 45 388 1 
E 45 393 5 
E 45 449 6 
E 45 495 5 
E 46 77 1 
E 46 94 8 
E 46 121 1 
E 46 152 4 
E 46 250 5 
E 46 328 2 
E 47 128 6 
E 47 137 9 
E 47 186 3 
E 47 193 5 
E 47 296 6 
E 47 316 9 
E 47 418 2 
E 47 471 6 
E 47 490 1 
E 48 107 1 
E 48 160 7 
E 48 174 1 
E 48 176 6 
E 48 213 7 
E 48 330 5 
E 48 339 1 
E 48 340 1 
E 48 419 9 
E 48 433 2 
E 49 206 4 
E 49 235 6 
E 49 346 10 
E 49 372 5 
E 49 377 9 
E 49 408 5 
E 49 456 1 
E 50 173 3 
E 50 179 5 
E 50 194 8 
E 50 232 7 
E 50 316 1 
E 50 318 10 
E 50 329 1 
E 50 405 1 
E 50 482 4 
E 51 69 8 
E 51 173 9 
E 51 250 8 
E 51 252 2 
E 51 286 6 
E 51 356 7 
E 51 358 2 
E 51 482 2 
E 51 491 4 
E 52 65 3 
E 52 82 10 
E 52 95 7 
E 52 121 9 
E 52 147 7 
E 52 268 5 
E 52 280 3 
E 52 439 1 
E 52 488 2 
E 53 208 9 
E 53 335 2 
E 53 423 2 
E 53 493 10 
E 54 131 5 
E 54 149 4 
E 54 299 6 
E 54 319 8 
E 54 420 6 
E 55 97 8 
E 55 125 7 
E 55 166 2 
E 55 185 3 
E 55 273 4 
E 55 405 1 
E 55 450 7 
E 55 453 10 
E 55 490 5 
E 55 492 3 
E 56 73 5 
E 56 116 1 
E 56 147 8 
E 56 253 8 
E 56 303 5 
E 56 307 10 
E 56 348 8 
E 56 389 8 
E 57 81 5 
E 57 264 1 
E 57 271 6 
E 57 297 5 
E 57 322 8 
E 57 325 1 
E 57 333 6 
E 57 335 9 
E 57 394 10 
E 57 449 4 
E 58 84 10 
E 58 91 7 
E 58 275 10 
E 58 293 7 
E 58 322 10 
E 58 334 5 
E 58 446 10 
E 58 481 5 
E 58 494 2 
E 58 499 3 
E 59 73 3 
E 59 154 10 
E 59 253 8 
E 59 256 3 
E 59 322 5 
E 59 413 1 
E 59 416 4 
E 59 436 6 
E 59 440 10 
E 59 447 8 
E 59 489 5 
E 60 131 4 
E 60 192 8 
E 60 219 4 
E 60 283 10 
E 60 306 3 
E 60 311 4 
E 60 427 7 
E 61 66 1 
E 61 86 1 
E 61 102 5 
E 61 127 7 
E 61 188 9 
E 61 317 6 
E 61 327 6 
E 61 331 1 
E 61 379 7 
E 61 396 4 
E 61 398 8 
E 61 411 1 
E 61 453 8 
E 61 499 6 
E 62 73 5 
E 62 106 9 
E 62 276 5 
E 62 341 6 
E 62 369 9 
E 63 108 8 
E 63 154 9 
E 63 182 7 
E 63 237 3 
E 63 264 6 
E 63 278 2 
E 63 320 8 
E 63 399 2 
E 63 414 5 
E 64 77 10 
E 64 131 6 
E 64 272 3 
E 64 313 10 
E 64 356 8 
E 64 380 2 
E 64 401 8 
E 64 415 8 
E 65 122 2 
E 65 245 10 
E 65 285 10 
E 65 318 4 
E 65 359 8 
E 65 379 8 
E 65 383 4 
E 65 435 4 
E 65 456 9 
E 66 111 3 
E 66 147 4 
E 66 183 5 
E 66 202 7 
E 66 391 1 
E 66 456 4 
E 67 72 3 
E 67 94 8 
E 67 225 4 
E 67 287 9 
E 67 303 1 
E 67 343 5 
E 67 375 2 
E 68 80 1 
E 68 85 9 
E 68 90 1 
E 68 165 6 
E 68 167 7 
E 68 172 5 
E 68 425 4 
E 69 128 7 
E 69 158 2 
E 69 160 9 
E 69 168 8 
E 69 181 3 
E 69 253 6 
E 69 278 2 
E 69 316 8 
E 69 335 6 
E 69 339 10 
E 69 344 10 
E 69 420 4 
E 70 347 10 
E 70 459 6 
E 70 491 3 
E 71 134 3 
E 71 193 9 
E 71 240 8 
E 71 373 8 
E 71 420 4 
E 71 435 2 
E 71 469 2 
E 72 78 3 
E 72 127 1 
E 72 129 6 
E 72 206 9 
E 72 231 10 
E 72 414 3 
E 72 423 2 
E 72 431 1 
E 72 493 2 
E 73 81 10 
E 73 119 1 
E 73 164 7 
E 73 187 10 
E 73 190 8 
E 73 204 9 
E 73 266 5 
E 73 278 6 
E 73 290 2 
E 73 426 7 
E 73 486 8 
E 74 91 2 
E 74 124 7 
E 74 143 5 
E 74 274 8 
E 74 370 5 
E 74 393 4 
E 75 134 8 
E 75 217 7 
E 75 346 3 
E 75 385 2 
E 75 461 8 
E 75 477 4 
E 76 131 1 
E 76 222 9 
E 76 273 9 
E 76 414 8 
E 76 447 8 
E 76 466 4 
E 76 471 3 
E 76 499 2 
E 77 97 7 
E 77 134 10 
E 77 153 7 
E 77 154 9 
E 77 241 8 
E 77 247 5 
E 77 251 10 
E 77 278 10 
E 77 285 6 
E 77 316 9 
E 77 358 6 
E 77 400 9 
E 77 408 2 
E 77 462 1 
E 77 498 10 
E 78 175 9 
E 78 230 1 
E 78 349 5 
E 78 376 7 
E 78 438 3 
E 78 474 9 
E 79 143 8 
E 79 162 4 
E 79 199 5 
E 79 229 8 
E 79 361 1 
E 79 452 8 
E 79 496 10 
E 80 156 4 
E 80 227 10 
E 80 241 9 
E 80 245 4 
E 80 321 6 
E 80 322 3 
E 80 416 2 
E 81 100 3 
E 81 105 3 
E 81 123 6 
E 81 174 8 
E 81 338 8 
E 81 375 8 
E 81 441 1 
E 82 87 3 
E 82 191 10 
E 82 232 5 
E 82 254 2 
E 82 290 8 
E 82 319 9 
E 82 330 6 
E 82 371 9 
E 82 403 9 
E 82 424 5 
E 82 431 6 
E 83 134 7 
E 83 161 10 
E 83 275 7 
E 83 314 1 
E 83 343 6 
E 83 356 10 
E 83 400 7 
E 83 401 3 
E 84 125 8 
E 84 246 3 
E 84 318 2 
E 84 337 3 
E 84 359 7 
E 84 437 4 
E 84 452 6 
E 84 463 2 
E 84 466 2 
E 85 167 7 
E 85 177 3 
E 85 234 7 
E 85 296 9 
E 85 297 3 
E 85 376 6 
E 85 417 5 
E 85 428 8 
E 85 431 1 
E 86 377 8 
E 86 405 8 
E 86 435 4 
E 86 444 7 
E 87 137 8 
E 87 161 7 
E 87 175 6 
E 87 196 9 
E 87 219 5 
E 87 379 2 
E 87 407 10 
E 87 440 10 
E 87 485 6 
E 88 150 3 
E 88 283 1 
E 88 338 6 
E 88 355 1 
E 88 476 5 
E 89 120 4 
E 89 172 2 
E 89 178 9 
E 89 253 9 
E 89 256 5 
E 89 302 9 
E 89 442 7 
E 90 141 8 
E 90 189 7 
E 90 367 5 
E 90 426 5 
E 90 439 2 
E 90 472 6 
E 91 145 4 
E 91 222 5 
E 91 233 8 
E 91 243 7 
E 91 272 10 
E 91 291 4 
E 91 313 2 
E 91 319 8 
E 91 346 2 
E 91 375 2 
E 91 390 10 
E 91 399 10 
E 91 414 6 
E 91 457 6 
E 91 485 2 
E 91 499 7 
E 92 205 5 
E 92 210 6 
E 92 234 3 
E 92 299 2 
E 92 331 5 
E 93 102 2 
E 93 126 2 
E 93 134 2 
E 93 168 4 
E 93 235 4 
E 93 261 9 
E 93 273 3 
E 93 480 8 
E 94 120 8 
E 94 154 4 
E 94 198 4 
E 94 232 6 
E 94 269 8 
E 94 319 4 
E 94 347 6 
E 94 352 10 
E 94 364 7 
E 94 368 1 
E 94 446 3 
E 94 466 6 
E 95 113 7 
E 95 184 1 
E 95 191 6 
E 95 238 5 
E 95 265 3 
E 95 296 1 
E 95 303 6 
E 95 308 7 
E 95 454 8 
E 96 107 7 
E 96 122 8 
E 96 213 8 
E 96 263 3 
E 96 284 2 
E 96 343 10 
E 96 360 5 
E 96 428 5 
E 96 436 2 
E 96 473 4 
E 97 109 4 
E 97 159 5 
E 97 214 2 
E 97 336 1 
E 98 177 10 
E 98 281 7 
E 98 342 6 
E 98 354 2 
E 98 375 7 
E 99 121 6 
E 99 144 5 
E 99 436 6 
E 100 105 7 
E 100 188 7 
E 100 214 7 
E 100 270 1 
E 100 347 5 
E 100 427 8 
E 100 441 7 
E 101 119 2 
E 101 147 3 
E 101 161 4 
E 101 169 4 
E 101 188 4 
E 101 194 10 
E 101 256 1 
E 101 353 2 
E 101 385 5 
E 101 392 4 
E 101 422 10 
E 101 435 4 
E 101 476 4 
E 102 161 1 
E 102 197 1 
E 102 206 5 
E 102 314 4 
E 102 315 5 
E 102 417 3 
E 102 431 5 
E 103 114 8 
E 103 170 2 
E 103 235 7 
E 103 244 1 
E 103 271 1 
E 103 394 4 
E 103 431 3 
E 104 119 4 
E 104 128 1 
E 104 147 6 
E 104 400 7 
E 104 402 5 
E 104 454 5 
E 105 118 2 
E 105 164 1 
E 105 175 5 
E 105 218 1 
E 105 325 5 
E 105 326 2 
E 105 347 1 
E 105 367 3 
E 105 477 10 
E 105 481 5 
E 106 141 10 
E 106 165 4 
E 106 191 7 
E 106 227 5 
E 106 230 2 
E 106 283 4 
E 106 311 8 
E 106 368 6 
E 107 134 1 
E 107 182 3 
E 107 232 4 
E 107 239 6 
E 107 357 10 
E 107 363 3 
E 107 368 7 
E 107 423 9 
E 107 481 1 
E 107 497 4 
E 108 182 1 
E 108 214 7 
E 108 273 1 
E 108 277 1 
E 108 291 6 
E 108 307 10 
E 108 310 6 
E 108 358 7 
E 108 472 2 
E 109 136 2 
E 109 138 2 
E 109 254 1 
E 109 299 3 
E 109 306 2 
E 109 321 5 
E 109 379 10 
E 109 387 5 
E 109 430 3 
E 110 129 3 
E 110 138 2 
E 110 155 10 
E 110 231 4 
E 110 271 6 
E 110 274 2 
E 110 349 9 
E 110 357 10 
E 110 467 1 
E 110 494 2 
E 111 114 5 
E 111 125 3 
E 111 168 3 
E 111 208 9 
E 111 230 3 
E 111 234 2 
E 111 244 10 
E 111 275 10 
E 111 288 8 
E 111 350 9 
E 111 382 3 
E 111 483 3 
E 112 291 9 
E 112 301 6 
E 112 306 7 
E 112 375 2 
E 112 379 8 
E 112 384 2 
E 112 389 8 
E 112 433 1 
E 113 151 6 
E 113 194 2 
E 113 222 1 
E 113 260 6 
E 113 295 7 
E 113 326 6 
E 113 365 2 
E 113 368 4 
E 113 386 5 
E 113 391 3 
E 113 392 5 
E 113 463 2 
E 114 144 1 
E 114 145 7 
E 114 203 7 
E 114 224 1 
E 114 277 10 
E 114 365 10 
E 114 477 5 
E 114 497 5 
E 115 180 7 
E 115 217 2 
E 115 225 6 
E 115 385 5 
E 115 472 3 
E 116 150 10 
E 116 155 5 
E 116 240 2 
E 116 242 1 
E 116 247 9 
E 116 279 1 
E 116 337 1 
E 116 368 1 
E 116 393 7 
E 116 440 5 
E 116 496 10 
E 117 122 6 
E 117 159 6 
E 117 171 1 
E 117 193 7 
E 117 238 1 
E 117 277 10 
E 117 389 8 
E 117 452 7 
E 117 500 3 
E 118 136 1 
E 118 175 8 
E 118 181 5 
E 118 212 7 
E 118 213 10 
E 118 214 4 
E 118 403 7 
E 118 417 6 
E 119 135 7 
E 119 168 3 
E 119 199 8 
E 119 243 10 
E 119 274 5 
E 119 360 5 
E 119 378 4 
E 119 386 4 
E 119 493 1 
E 120 124 8 
E 120 127 9 
E 120 163 8 
E 120 193 3 
E 120 202 6 
E 120 237 8 
E 120 254 7 
E 120 265 7 
E 120 268 3 
E 120 287 2 
E 120 357 8 
E 120 367 9 
E 120 396 2 
E 121 137 9 
E 121 176 2 
E 121 194 7 
E 121 201 6 
E 121 289 8 
E 121 318 3 
E 121 339 9 
E 121 453 8 
E 121 476 7 
E 122 192 6 
E 122 244 1 
E 122 245 10 
E 122 299 5 
E 122 301 2 
E 122 321 3 
E 122 331 1 
E 122 383 9 
E 122 443 10 
E 123 252 6 
E 123 300 10 
E 123 412 2 
E 124 139 10 
E 124 192 10 
E 124 298 2 
E 124 318 4 
E 124 339 3 
E 124 417 10 
E 124 419 7 
E 125 142 6 
E 125 164 5 
E 125 324 8 
E 125 349 7 
E 125 360 1 
E 125 381 4 
E 125 386 3 
E 125 485 4 
E 126 186 9 
E 126 255 5 
E 126 283 9 
E 126 329 9 
E 126 368 10 
E 126 399 1 
E 126 401 7 
E 126 453 6 
E 126 455 5 
E 126 456 5 
E 127 137 5 
E 127 179 10 
E 127 229 9 
E 127 264 9 
E 127 283 9 
E 127 339 8 
E 127 385 5 
E 127 396 7 
E 127 439 3 
E 128 299 10 
E 128 413 4 
E 128 482 10 
E 129 139 9 
E 129 228 8 
E 129 257 5 
E 129 270 10 
E 129 333 6 
E 129 344 8 
E 129 432 2 
E 129 468 4 
E 129 497 7 
E 130 150 5 
E 130 163 2 
E 130 178 1 
E 130 327 9 
E 130 351 2 
E 130 383 3 
E 130 416 5 
E 130 432 7 
E 130 441 9 
E 131 198 2 
E 131 330 2 
E 131 401 5 
E 132 152 5 
E 132 166 7 
E 132 204 4 
E 132 273 8 
E 132 393 1 
E 132 414 4 
E 132 455 1 
E 132 471 6 
E 133 204 9 
E 133 260 4 
E 133 282 3 
E 133 283 7 
E 133 315 10 
E 133 334 10 
E 133 345 6 
E 133 403 5 
E 133 407 8 
E 133 438 3 
E 133 445 5 
E 133 500 9 
E 134 170 1 
E 134 204 5 
E 134 250 7 
E 134 259 8 
E 134 272 10 
E 134 287 5 
E 134 394 2 
E 135 246 3 
E 135 284 10 
E 135 315 2 
E 135 326 3 
E 135 354 5 
E 135 393 3 
E 135 398 2 
E 135 476 2 
E 136 229 6 
E 136 281 3 
E 136 290 5 
E 136 304 4 
E 136 334 5 
E 136 388 6 
E 136 487 9 
E 137 225 8 
E 137 322 4 
E 137 490 1 
E 138 193 9 
E 138 202 4 
E 138 216 3 
E 138 250 6 
E 138 261 1 
E 138 262 7 
E 138 298 5 
E 138 308 5 
E 138 397 4 
E 138 421 6 
E 138 430 4 
E 138 467 5 
E 139 163 1 
E 139 174 4 
E 139 175 6 
E 139 190 1 
E 139 220 4 
E 139 249 5 
E 139 256 3 
E 139 362 3 
E 139 455 2 
E 140 183 2 
E 140 192 8 
E 140 353 3 
E 140 360 2 
E 140 377 5 
E 140 422 8 
E 140 484 2 
E 141 144 5 
E 141 185 3 
E 141 234 9 
E 141 262 7 
E 141 279 2 
E 141 345 3 
E 141 377 5 
E 141 460 2 
E 142 147 3 
E 142 194 4 
E 142 216 7 
E 142 240 9 
E 142 289 5 
E 142 429 3 
E 142 431 2 
E 142 443 10 
E 142 464 7 
E 142 465 4 
E 142 495 6 
E 143 307 5 
E 143 360 3 
E 143 384 2 
E 143 481 3 
E 144 242 5 
E 144 309 8 
E 144 400 4 
E 144 428 4 
E 144 435 10 
E 144 450 1 
E 144 491 8 
E 145 153 8 
E 145 198 8 
E 145 215 7 
E 145 245 9 
E 145 346 6 
E 145 403 8 
E 145 447 9 
E 146 179 9 
E 146 216 8 
E 146 328 6 
E 146 445 4 
E 147 209 2 
E 147 220 9 
E 147 249 8 
E 147 288 8 
E 147 335 6 
E 147 362 9 
E 147 490 5 
E 147 496 1 
E 148 287 3 
E 148 300 10 
E 148 302 9 
E 148 364 9 
E 148 373 6 
E 148 407 7 
E 148 470 8 
E 148 481 9 
E 149 251 6 
E 149 344 2 
E 149 401 1 
E 149 408 8 
E 149 441 10 
E 149 464 7 
E 150 153 5 
E 150 250 7 
E 150 260 5 
E 150 288 6 
E 150 313 9 
E 150 314 7 
E 150 429 4 
E 151 197 6 
E 151 261 9 
E 151 335 4 
E 151 477 4 
E 152 204 6 
E 152 207 3 
E 152 249 8 
E 152 322 1 
E 152 430 7 
E 153 354 5 
E 153 427 3 
E 153 431 6 
E 153 445 6 
E 153 466 3 
E 153 487 3 
E 154 166 10 
E 154 232 10 
E 154 302 7 
E 154 314 2 
E 154 341 8 
E 154 371 6 
E 154 461 10 
E 155 234 3 
E 155 262 8 
E 155 341 2 
E 155 366 6 
E 155 430 9 
E 155 436 9 
E 155 466 8 
E 155 474 4 
E 155 493 1 
E 156 161 3 
E 156 188 5 
E 156 282 10 
E 156 378 8 
E 156 424 4 
E 156 483 4 
E 157 241 5 
E 157 300 3 
E 157 353 2 
E 157 476 1 
E 157 487 7 
E 158 188 6 
E 158 216 10 
E 158 227 7 
E 158 243 6 
E 158 294 6 
E 158 389 8 
E 158 430 1 
E 158 447 8 
E 158 491 3 
E 159 166 1 
E 159 222 1 
E 159 313 3 
E 159 350 10 
E 159 359 3 
E 159 368 3 
E 159 434 5 
E 159 460 8 
E 159 499 1 
E 160 192 1 
E 160 219 2 
E 160 254 3 
E 160 316 7 
E 160 322 3 
E 160 328 2 
E 160 367 6 
E 160 411 2 
E 161 180 9 
E 161 189 10 
E 161 200 8 
E 161 203 6 
E 161 237 8 
E 161 246 3 
E 161 302 9 
E 161 329 8 
E 161 445 8 
E 161 496 9 
E 162 345 9 
E 162 350 7 
E 162 373 9 
E 162 390 5 
E 163 208 6 
E 163 229 8 
E 163 276 6 
E 163 287 9 
E 163 353 1 
E 163 400 4 
E 163 435 7 
E 164 186 5 
E 164 209 6 
E 164 230 10 
E 164 277 4 
E 164 308 5 
E 164 375 8 
E 164 405 6 
E 164 437 7 
E 164 493 2 
E 165 185 10 
E 165 216 4 
E 165 300 5 
E 165 341 7 
E 165 357 1 
E 165 390 1 
E 165 407 4 
E 165 456 6 
E 165 474 3 
E 166 220 9 
E 166 279 6 
E 166 382 1 
E 166 499 2 
E 167 169 9 
E 167 183 7 
E 167 190 6 
E 167 230 4 
E 167 233 9 
E 167 234 8 
E 167 279 7 
E 167 288 4 
E 167 358 8 
E 167 368 9 
E 167 485 7 
E 167 488 3 
E 168 354 5 
E 168 359 4 
E 168 373 1 
E 168 396 6 
E 169 200 3 
E 169 232 3 
E 169 236 6 
E 169 260 9 
E 169 271 3 
E 169 284 6 
E 169 419 4 
E 170 208 3 
E 170 222 2 
E 170 254 8 
E 170 331 2 
E 170 342 7 
E 170 391 8 
E 170 405 5 
E 170 421 1 
E 170 447 7 
E 170 474 3 
E 170 490 7 
E 171 176 7 
E 171 261 3 
E 171 263 2 
E 171 334 8 
E 171 405 2 
E 171 410 7 
E 171 451 9 
E 171 452 1 
E 171 459 2 
E 171 478 2 
E 171 490 1 
E 172 207 5 
E 172 223 1 
E 172 396 6 
E 173 239 10 
E 173 291 4 
E 173 322 1 
E 173 364 7 
E 173 432 2 
E 173 466 6 
E 173 491 8 
E 173 494 3 
E 174 214 6 
E 174 220 8 
E 174 221 1 
E 174 314 10 
E 174 342 1 
E 174 445 9 
E 175 194 4 
E 175 240 9 
E 175 255 3 
E 175 263 7 
E 175 275 5 
E 175 290 4 
E 175 303 3 
E 175 375 8 
E 175 397 10 
E 175 427 4 
E 175 445 2 
E 175 475 3 
E 176 213 3 
E 176 323 1 
E 176 343 6 
E 176 398 6 
E 176 489 6 
E 177 192 10 
E 177 216 4 
E 177 311 5 
E 177 376 1 
E 177 399 6 
E 178 212 3 
E 178 257 4 
E 178 360 3 
E 178 382 6 
E 178 426 1 
E 178 453 3 
E 179 190 4 
E 179 260 10 
E 179 276 4 
E 179 326 8 
E 179 394 5 
E 179 414 8 
E 179 444 7 
E 179 460 1 
E 179 498 1 
E 180 185 1 
E 180 308 2 
E 180 311 2 
E 180 326 10 
E 180 434 1 
E 181 204 8 
E 181 213 7 
E 181 360 5 
E 181 410 10 
E 181 431 6 
E 181 437 3 
E 181 444 10 
E 182 199 10 
E 182 348 5 
E 182 375 6 
E 182 393 6 
E 182 394 2 
E 182 399 10 
E 182 403 9 
E 182 424 8 
E 182 431 8 
E 182 433 1 
E 182 462 3 
E 183 244 6 
E 183 338 8 
E 183 346 3 
E 183 373 10 
E 183 387 2 
E 183 415 6 
E 183 460 6 
E 184 243 4 
E 184 276 5 
E 184 283 2 
E 184 318 8 
E 184 405 9 
E 184 451 8 
E 185 186 4 
E 185 231 6 
E 185 239 2 
E 185 249 5 
E 185 351 2 
E 185 374 2 
E 185 436 10 
E 185 481 2 
E 186 297 1 
E 186 363 5 
E 186 423 5 
E 187 194 10 
E 187 197 6 
E 187 232 1 
E 187 238 8 
E 187 367 8 
E 187 468 6 
E 187 471 7 
E 187 480 3 
E 188 284 6 
E 188 353 7 
E 188 410 2 
E 188 492 10 
E 189 204 5 
E 189 228 4 
E 189 236 8 
E 189 273 10 
E 189 296 6 
E 189 329 6 
E 189 335 7 
E 189 393 1 
E 189 479 5 
E 190 221 2 
E 190 366 5 
E 190 383 1 
E 190 418 7 
E 190 456 9 
E 190 457 6 
E 191 199 3 
E 191 299 1 
E 191 372 1 
E 191 386 7 
E 191 414 6 
E 191 448 5 
E 191 483 1 
E 192 293 8 
E 192 311 4 
E 192 324 10 
E 192 449 6 
E 192 481 2 
E 193 196 1 
E 193 203 5 
E 193 284 6 
E 193 372 8 
E 193 429 1 
E 193 433 6 
E 193 446 4 
E 193 447 2 
E 193 456 5 
E 193 494 3 
E 194 269 10 
E 194 332 6 
E 194 360 10 
E 194 403 8 
E 195 298 2 
E 195 393 3 
E 195 491 2 
E 196 248 3 
E 196 259 7 
E 196 353 6 
E 196 362 4 
E 196 469 7 
E 197 213 8 
E 197 339 9 
E 197 383 8 
E 197 389 7 
E 197 394 7 
E 197 421 10 
E 197 467 9 
E 198 329 8 
E 198 393 5 
E 198 417 10 
E 198 445 6 
E 198 450 9 
E 199 206 3 
E 199 296 3 
E 199 353 8 
E 199 392 3 
E 199 410 1 
E 199 466 6 
E 200 213 3 
E 200 236 5 
E 200 241 4 
E 200 256 3 
E 200 267 10 
E 200 273 7 
E 200 340 10 
E 200 409 10 
E 200 495 9 
E 201 212 6 
E 201 218 3 
E 201 262 4 
E 201 305 5 
E 201 365 9 
E 201 407 5 
E 201 475 3 
E 201 484 9 
E 202 288 2 
E 202 354 10 
E 203 208 10 
E 203 225 5 
E 203 269 1 
E 203 444 9 
E 203 483 5 
E 204 356 5 
E 204 420 2 
E 205 254 2 
E 205 337 4 
E 205 359 1 
E 205 393 2 
E 206 263 9 
E 206 350 4 
E 207 220 5 
E 207 223 7 
E 207 356 6 
E 207 404 1 
E 207 455 8 
E 208 299 3 
E 208 369 5 
E 208 483 2 
E 208 495 8 
E 209 225 6 
E 209 232 2 
E 209 271 4 
E 209 422 7 
E 210 261 8 
E 210 271 3 
E 210 306 1 
E 210 312 10 
E 210 393 1 
E 210 408 5 
E 210 436 1 
E 211 244 10 
E 211 246 1 
E 211 270 2 
E 211 320 10 
E 211 371 9 
E 211 406 6 
E 211 436 1 
E 211 447 1 
E 212 228 7 
E 212 253 2 
E 212 292 9 
E 212 297 8 
E 212 304 4 
E 212 337 7 
E 212 341 5 
E 213 226 4 
E 213 249 4 
E 213 264 8 
E 213 384 5 
E 213 393 3 
E 213 408 8 
E 214 254 4 
E 214 278 8 
E 214 372 3 
E 214 392 9 
E 214 406 4 
E 214 449 9 
E 214 457 7 
E 214 473 10 
E 215 297 7 
E 215 382 10 
E 215 425 2 
E 216 245 3 
E 216 304 10 
E 216 328 4 
E 216 402 8 
E 216 410 6 
E 216 433 9 
E 217 229 9 
E 217 232 10 
E 217 242 10 
E 217 283 4 
E 217 311 5 
E 217 334 3 
E 217 413 2 
E 218 267 9 
E 218 275 3 
E 218 317 10 
E 218 339 1 
E 218 489 4 
E 219 289 1 
E 219 304 5 
E 219 350 8 
E 219 391 8 
E 219 411 7 
E 219 418 1 
E 219 437 5 
E 220 275 7 
E 220 314 8 
E 220 319 3 
E 220 357 1 
E 220 374 8 
E 220 376 5 
E 220 404 2 
E 220 423 2 
E 220 449 9 
E 221 239 7 
E 221 249 7 
E 221 258 10 
E 221 275 1 
E 221 293 3 
E 221 323 6 
E 221 373 10 
E 221 381 10 
E 221 492 6 
E 222 280 4 
E 222 334 5 
E 222 365 6 
E 222 394 6 
E 222 451 7 
E 223 253 7 
E 223 264 9 
E 223 348 10 
E 223 407 5 
E 223 413 5 
E 224 333 5 
E 224 334 2 
E 224 371 9 
E 225 253 6 
E 225 366 10 
E 225 388 3 
E 225 411 4 
E 225 422 9 
E 225 456 10 
E 226 263 8 
E 226 341 2 
E 226 403 7 
E 226 440 3 
E 227 244 7 
E 227 291 4 
E 227 447 5 
E 228 287 5 
E 228 362 8 
E 228 387 9 
E 228 421 9 
E 228 478 6 
E 229 297 9 
E 229 314 1 
E 229 336 1 
E 229 388 6 
E 229 401 2 
E 230 321 1 
E 231 233 8 
E 231 371 8 
E 231 384 9 
E 231 434 5 
E 231 463 6 
E 232 235 9 
E 232 247 1 
E 232 253 1 
E 232 267 9 
E 232 474 3 
E 232 488 8 
E 233 238 10 
E 233 283 9 
E 233 291 2 
E 233 318 4 
E 233 342 4 
E 234 267 5 
E 234 303 10 
E 234 403 1 
E 234 432 2 
E 235 385 2 
E 235 389 10 
E 235 397 7 
E 235 406 7 
E 235 422 9 
E 235 463 4 
E 235 478 5 
E 236 290 9 
E 236 339 5 
E 236 376 7 
E 236 436 3 
E 236 459 7 
E 237 276 2 
E 237 443 2 
E 237 482 2 
E 237 496 3 
E 238 269 2 
E 238 323 10 
E 238 350 10 
E 238 414 8 
E 238 498 6 
E 239 383 4 
E 239 467 10 
E 239 470 8 
E 239 474 7 
E 239 490 10 
E 239 500 5 
E 240 272 1 
E 240 377 4 
E 240 400 7 
E 240 487 4 
E 241 252 8 
E 241 323 7 
E 241 379 7 
E 241 411 1 
E 241 443 4 
E 241 460 10 
E 242 293 2 
E 242 355 7 
E 243 247 6 
E 243 303 7 
E 243 396 2 
E 243 400 3 
E 243 499 4 
E 244 291 2 
E 244 326 8 
E 245 276 7 
E 245 277 3 
E 245 301 3 
E 246 262 4 
E 246 275 8 
E 246 369 4 
E 246 380 4 
E 246 396 9 
E 246 451 2 
E 246 455 10 
E 246 461 3 
E 247 264 6 
E 247 277 7 
E 247 304 2 
E 247 340 2 
E 247 425 10 
E 247 449 7 
E 247 481 9 
E 248 272 2 
E 248 295 1 
E 248 316 6 
E 248 352 9 
E 248 358 5 
E 248 417 9 
E 248 421 9 
E 249 260 6 
E 249 267 3 
E 249 271 9 
E 249 312 5 
E 249 341 4 
E 249 384 3 
E 250 275 6 
E 250 303 1 
E 250 382 9 
E 250 420 10 
E 250 471 7 
E 250 499 1 
E 251 291 2 
E 251 304 8 
E 251 315 5 
E 251 453 8 
E 252 263 5 
E 252 292 10 
E 252 330 10 
E 252 370 1 
E 252 398 6 
E 252 410 4 
E 252 438 10 
E 253 356 8 
E 253 372 10 
E 253 474 3 
E 254 286 8 
E 254 311 10 
E 254 364 2 
E 255 350 7 
E 255 448 4 
E 255 466 2 
E 256 264 5 
E 256 330 2 
E 256 343 5 
E 256 446 1 
E 256 475 4 
E 257 285 10 
E 257 307 8 
E 257 360 4 
E 257 382 6 
E 257 455 2 
E 257 469 4 
E 258 279 7 
E 258 285 4 
E 258 374 4 
E 258 397 2 
E 258 445 8 
E 259 279 9 
E 259 309 7 
E 259 492 9 
E 259 500 9 
E 260 275 4 
E 260 378 8 
E 260 465 4 
E 260 466 4 
E 260 480 8 
E 260 483 10 
E 261 309 10 
E 261 318 2 
E 261 341 7 
E 261 391 2 
E 261 415 6 
E 261 431 4 
E 262 298 1 
E 262 302 4 
E 262 363 2 
E 262 420 6 
E 262 443 9 
E 262 479 10 
E 262 500 4 
E 263 390 9 
E 263 482 8 
E 263 492 7 
E 264 296 1 
E 264 343 2 
E 264 376 9 
E 264 399 3 
E 265 287 7 
E 265 298 3 
E 265 322 2 
E 265 342 7 
E 265 380 8 
E 265 413 3 
E 265 430 6 
E 265 456 2 
E 265 470 1 
E 265 495 2 
E 266 325 3 
E 266 348 4 
E 266 424 7 
E 266 425 2 
E 266 455 3 
E 267 285 5 
E 267 412 10 
E 267 499 1 
E 268 380 1 
E 268 393 3 
E 268 424 5 
E 269 313 3 
E 269 333 2 
E 269 361 9 
E 269 381 2 
E 269 396 8 
E 269 413 7 
E 269 416 1 
E 269 420 4 
E 269 478 3 
E 270 307 5 
E 270 382 6 
E 270 455 2 
E 271 276 2 
E 271 281 5 
E 271 304 2 
E 271 321 6 
E 272 378 1 
E 272 381 10 
E 272 431 7 
E 272 463 10 
E 273 416 7 
E 273 470 10 
E 274 293 10 
E 274 333 5 
E 274 384 6 
E 274 433 3 
E 275 421 4 
E 275 441 5 
E 275 467 6 
E 276 282 3 
E 276 328 9 
E 276 396 3 
E 277 315 7 
E 277 381 5 
E 277 427 7 
E 277 431 6 
E 278 293 4 
E 278 310 8 
E 278 351 5 
E 278 368 10 
E 278 371 9 
E 278 482 3 
E 279 366 2 
E 279 444 10 
E 280 293 6 
E 280 306 2 
E 280 400 6 
E 280 452 7 
E 280 472 10 
E 281 302 2 
E 281 389 7 
E 281 419 9 
E 281 421 1 
E 281 468 8 
E 281 476 8 
E 282 300 4 
E 282 305 10 
E 282 322 1 
E 282 329 8 
E 282 334 6 
E 282 365 2 
E 282 470 3 
E 283 406 6 
E 283 419 10 
E 283 433 9 
E 283 439 6 
E 283 463 10 
E 284 295 9 
E 284 329 7 
E 284 374 10 
E 284 428 2 
E 285 287 7 
E 285 335 10 
E 285 420 10 
E 285 454 2 
E 285 494 3 
E 286 340 6 
E 286 447 1 
E 286 497 2 
E 287 348 9 
E 287 445 8 
E 288 384 10 
E 288 408 7 
E 289 292 6 
E 289 374 10 
E 289 454 10 
E 289 459 4 
E 290 291 8 
E 290 300 9 
E 291 298 10 
E 291 390 8 
E 291 432 2 
E 291 487 1 
E 292 338 5 
E 292 405 7 
E 292 443 7 
E 292 472 1 
E 293 299 6 
E 293 352 1 
E 293 360 2 
E 293 469 1 
E 294 329 2 
E 294 359 1 
E 294 361 5 
E 294 376 3 
E 294 435 9 
E 294 454 6 
E 294 473 10 
E 295 405 7 
E 295 430 8 
E 295 450 9 
E 296 332 5 
E 296 467 1 
E 296 483 4 
E 297 400 4 
E 297 464 1 
E 298 300 2 
E 298 365 6 
E 298 383 1 
E 298 489 6 
E 299 331 3 
E 299 351 2 
E 299 383 4 
E 299 384 2 
E 299 483 8 
E 300 419 7 
E 300 449 2 
E 301 486 10 
E 302 442 4 
E 303 323 5 
E 303 359 7 
E 303 372 10 
E 303 374 10 
E 303 386 5 
E 303 450 10 
E 303 467 2 
E 304 337 4 
E 304 399 5 
E 304 408 8 
E 304 422 2 
E 304 437 6 
E 304 452 7 
E 305 492 6 
E 306 312 1 
E 306 348 3 
E 306 475 5 
E 307 317 8 
E 307 346 4 
E 308 372 4 
E 308 386 8 
E 308 388 3 
E 308 432 3 
E 308 437 4 
E 308 460 6 
E 309 354 6 
E 309 383 3 
E 310 368 4 
E 310 369 9 
E 311 314 5 
E 311 450 3 
E 311 495 9 
E 312 341 9 
E 312 347 8 
E 312 395 4 
E 312 402 8 
E 312 441 1 
E 312 484 10 
E 312 485 2 
E 313 392 4 
E 313 450 3 
E 313 456 4 
E 313 474 1 
E 314 355 1 
E 314 404 9 
E 314 466 8 
E 314 467 6 
E 314 479 8 
E 315 347 3 
E 315 417 7 
E 316 417 3 
E 316 428 10 
E 316 498 4 
E 317 360 4 
E 317 497 1 
E 318 391 9 
E 318 393 7 
E 318 424 5 
E 319 375 1 
E 319 424 2 
E 320 340 9 
E 320 440 2 
E 321 326 10 
E 321 419 8 
E 321 440 9 
E 322 324 4 
E 322 353 8 
E 322 365 8 
E 322 414 5 
E 322 431 1 
E 322 457 1 
E 322 476 4 
E 323 370 1 
E 323 414 8 
E 323 451 5 
E 323 499 6 
E 324 430 7 
E 324 434 10 
E 325 378 1 
E 326 329 7 
E 326 415 10 
E 326 442 3 
E 326 457 10 
E 326 465 5 
E 326 485 5 
E 326 488 7 
E 326 497 7 
E 327 385 10 
E 327 448 2 
E 328 335 6 
E 328 453 4 
E 328 459 9 
E 329 348 2 
E 329 378 4 
E 330 359 8 
E 330 363 2 
E 330 393 1 
E 330 416 2 
E 331 340 2 
E 331 353 8 
E 331 402 5 
E 331 413 1 
E 332 352 5 
E 332 377 5 
E 333 336 2 
E 333 353 1 
E 333 391 8 
E 333 404 6 
E 333 421 4 
E 333 494 3 
E 333 499 6 
E 334 341 1 
E 334 350 9 
E 334 412 6 
E 334 433 4 
E 334 487 3 
E 335 351 10 
E 335 355 3 
E 335 446 1 
E 335 450 3 
E 335 485 2 
E 336 411 10 
E 336 432 6 
E 337 426 10 
E 337 459 9 
E 337 480 5 
E 337 496 2 
E 338 339 9 
E 338 446 8 
E 338 448 10 
E 339 451 3 
E 339 455 7 
E 339 494 3 
E 340 371 6 
E 340 373 2 
E 340 394 8 
E 340 466 7 
E 340 491 3 
E 341 455 2 
E 341 477 9 
E 342 365 5 
E 342 429 2 
E 342 435 7 
E 342 460 9 
E 343 387 8 
E 343 460 2 
E 344 365 3 
E 344 401 9 
E 344 484 10 
E 345 483 3 
E 346 400 5 
E 346 492 1 
E 346 498 2 
E 347 350 5 
E 347 359 1 
E 347 393 1 
E 347 464 3 
E 347 469 7 
E 347 475 7 
E 347 488 10 
E 348 387 4 
E 348 418 4 
E 348 444 2 
E 349 423 8 
E 349 446 4 
E 349 454 4 
E 350 380 10 
E 350 391 8 
E 350 439 2 
E 350 458 8 
E 351 372 10 
E 351 381 4 
E 351 422 10 
E 351 430 10 
E 351 433 4 
E 351 478 9 
E 351 494 3 
E 352 358 9 
E 352 364 2 
E 352 373 3 
E 352 470 2 
E 352 473 7 
E 352 477 8 
E 352 488 5 
E 354 461 2 
E 354 470 10 
E 355 423 2 
E 356 360 5 
E 356 371 7 
E 356 415 10 
E 357 435 9 
E 357 480 6 
E 358 399 6 
E 358 483 9 
E 359 373 3 
E 359 380 4 
E 359 479 6 
E 360 362 7 
E 360 477 3 
E 361 387 7 
E 361 436 8 
E 361 443 1 
E 361 446 7 
E 361 470 8 
E 361 481 8 
E 361 495 8 
E 362 375 9 
E 362 391 7 
E 362 461 3 
E 362 464 8 
E 363 449 1 
E 363 484 7 
E 364 416 2 
E 364 440 1 
E 364 444 3 
E 364 481 1 
E 365 419 6 
E 365 424 1 
E 365 473 6 
E 366 387 8 
E 366 388 3 
E 366 458 1 
E 368 425 10 
E 368 456 9 
E 368 460 8 
E 368 478 10 
E 369 383 7 
E 369 406 4 
E 369 409 5 
E 369 424 1 
E 370 383 2 
E 370 410 4 
E 370 428 7 
E 372 393 7 
E 372 403 3 
E 372 413 9 
E 372 417 3 
E 373 378 6 
E 373 423 6 
E 373 443 1 
E 374 449 2 
E 375 378 9 
E 375 500 3 
E 376 432 7 
E 376 491 1 
E 377 395 7 
E 377 466 7 
E 378 469 1 
E 379 405 5 
E 379 427 4 
E 379 434 10 
E 379 493 9 
E 380 436 5 
E 380 460 3 
E 380 475 5 
E 380 479 2 
E 380 495 5 
E 381 405 7 
E 382 388 5 
E 382 429 5 
E 382 477 5 
E 382 482 4 
E 383 448 9 
E 384 395 3 
E 384 401 1 
E 384 428 2 
E 384 460 6 
E 384 490 9 
E 385 393 4 
E 385 427 4 
E 385 500 1 
E 386 393 5 
E 386 440 10 
E 387 395 3 
E 389 410 4 
E 389 482 4 
E 390 479 1 
E 390 492 6 
E 391 400 3 
E 392 409 2 
E 392 410 7 
E 393 411 9 
E 394 446 10 
E 394 469 9 
E 395 450 9 
E 395 473 9 
E 397 446 7 
E 398 416 9 
E 398 431 8 
E 398 457 9 
E 399 463 1 
E 400 438 1 
E 400 449 1 
E 400 457 1 
E 401 410 8 
E 401 458 7 
E 402 403 4 
E 403 411 5 
E 404 448 4 
E 405 475 10 
E 406 411 2 
E 407 452 7 
E 407 459 6 
E 408 444 10 
E 409 424 9 
E 409 494 3 
E 409 495 3 
E 410 440 2 
E 410 462 2 
E 412 430 9 
E 412 456 1 
E 413 443 1 
E 413 458 5 
E 413 465 5 
E 415 435 5 
E 416 418 7 
E 416 432 8 
E 416 438 5 
E 418 420 6 
E 418 432 3 
E 418 451 2 
E 420 462 2 
E 420 484 10 
E 422 424 6 
E 422 485 7 
E 423 441 4 
E 423 499 7 
E 424 478 4 
E 424 499 4 
E 425 454 7 
E 426 468 8 
E 427 454 3 
E 427 457 1 
E 428 455 4 
E 430 439 5 
E 430 446 2 
E 430 472 7 
E 432 449 6 
E 432 461 4 
E 432 470 8 
E 433 489 5 
E 434 437 8 
E 434 458 8 
E 434 499 3 
E 435 500 7 
E 436 474 3 
E 437 443 9 
E 437 472 9 
E 437 497 1 
E 438 462 2 
E 438 468 9 
E 439 464 3 
E 439 495 2 
E 440 451 9 
E 442 448 10 
E 442 462 8 
E 442 475 6 
E 443 459 10 
E 444 460 1 
E 445 453 9 
E 445 479 5 
E 446 488 5 
E 447 490 7 
E 448 483 7 
E 449 451 9 
E 451 487 1 
E 453 479 6 
E 453 499 8 
E 455 464 2 
E 455 494 2 
E 456 471 6 
E 456 480 7 
E 458 470 8 
E 458 488 5 
E 462 469 10 
E 463 476 10 
E 465 477 8 
E 465 485 6 
E 466 477 1 
E 466 490 2 
E 468 482 8 
E 468 486 3 
E 469 486 9 
E 470 472 9 
E 471 479 9 
E 475 485 8 
E 477 482 10 
E 477 498 4 
E 483 487 9 
E 487 495 1 
E 490 492 3 
E 490 493 4 
E 491 496 8 
E 491 498 6 
END 

SECTION ProfitableVertices 
ProfitableVertices 5 
PV 1 26
PV 255 97
PV 298 32
PV 382 45
PV 437 74
END 

EOF 
